(declare-fun dst_reg_11_151 () (_ BitVec 32))
(declare-fun dst_reg_11_86 () (_ BitVec 32))
(declare-fun dst_reg_11_150 () (_ BitVec 64))
(declare-fun storemerge_11_97 () (_ BitVec 64))
(declare-fun dst_reg_11_149 () (_ BitVec 64))
(declare-fun dst_reg_11_84 () (_ BitVec 64))
(declare-fun dst_reg_11_148 () (_ BitVec 64))
(declare-fun dst_reg_11_83 () (_ BitVec 64))
(declare-fun dst_reg_11_147 () (_ BitVec 64))
(declare-fun dst_reg_11_82 () (_ BitVec 64))
(declare-fun dst_reg_11_146 () (_ BitVec 64))
(declare-fun dst_reg_11_81 () (_ BitVec 64))
(declare-fun dst_reg_11_145 () (_ BitVec 64))
(declare-fun dst_reg_11_80 () (_ BitVec 64))
(declare-fun dst_reg_11_144 () (_ BitVec 32))
(declare-fun dst_reg_11_79 () (_ BitVec 32))
(declare-fun dst_reg_11_143 () (_ BitVec 32))
(declare-fun dst_reg_11_78 () (_ BitVec 32))
(declare-fun dst_reg_11_142 () (_ BitVec 32))
(declare-fun dst_reg_11_77 () (_ BitVec 32))
(declare-fun src_reg_11_161 () (_ BitVec 32))
(declare-fun src_reg_11_96 () (_ BitVec 32))
(declare-fun src_reg_11_160 () (_ BitVec 64))
(declare-fun src_reg_11_95 () (_ BitVec 64))
(declare-fun src_reg_11_159 () (_ BitVec 64))
(declare-fun src_reg_11_94 () (_ BitVec 64))
(declare-fun src_reg_11_158 () (_ BitVec 64))
(declare-fun src_reg_11_93 () (_ BitVec 64))
(declare-fun src_reg_11_157 () (_ BitVec 64))
(declare-fun src_reg_11_92 () (_ BitVec 64))
(declare-fun src_reg_11_156 () (_ BitVec 64))
(declare-fun src_reg_11_91 () (_ BitVec 64))
(declare-fun src_reg_11_155 () (_ BitVec 64))
(declare-fun src_reg_11_90 () (_ BitVec 64))
(declare-fun src_reg_11_154 () (_ BitVec 32))
(declare-fun src_reg_11_89 () (_ BitVec 32))
(declare-fun src_reg_11_153 () (_ BitVec 32))
(declare-fun src_reg_11_88 () (_ BitVec 32))
(declare-fun src_reg_11_152 () (_ BitVec 32))
(declare-fun src_reg_11_87 () (_ BitVec 32))
(declare-fun i19_11_54 () (_ BitVec 1))
(declare-fun cmp.i246.i_11_100 () (_ BitVec 1))
(declare-fun cmp1.i248.i_11_103 () (_ BitVec 1))
(declare-fun cmp21.i.i_11_113 () (_ BitVec 1))
(declare-fun cmp40.i.i_11_118 () (_ BitVec 1))
(declare-fun dst_reg_11_130 () (_ BitVec 32))
(declare-fun dst_reg_11_129 () (_ BitVec 64))
(declare-fun dst_reg_11_128 () (_ BitVec 64))
(declare-fun i28.i.i.sink_11_141 () (_ BitVec 64))
(declare-fun dst_reg_11_126 () (_ BitVec 64))
(declare-fun dst_reg_11_125 () (_ BitVec 64))
(declare-fun dst_reg_11_124 () (_ BitVec 64))
(declare-fun dst_reg_11_123 () (_ BitVec 32))
(declare-fun dst_reg_11_122 () (_ BitVec 32))
(declare-fun dst_reg_11_121 () (_ BitVec 32))
(declare-fun src_reg_11_140 () (_ BitVec 32))
(declare-fun src_reg_11_139 () (_ BitVec 64))
(declare-fun src_reg_11_138 () (_ BitVec 64))
(declare-fun src_reg_11_137 () (_ BitVec 64))
(declare-fun src_reg_11_136 () (_ BitVec 64))
(declare-fun src_reg_11_135 () (_ BitVec 64))
(declare-fun src_reg_11_134 () (_ BitVec 64))
(declare-fun src_reg_11_133 () (_ BitVec 32))
(declare-fun src_reg_11_132 () (_ BitVec 32))
(declare-fun src_reg_11_131 () (_ BitVec 32))
(declare-fun cmp.i.i.i.i_11_166 () (_ BitVec 1))
(declare-fun xor.i.i.i_11_164 () (_ BitVec 64))
(declare-fun i.i253.i_11_162 () (_ BitVec 64))
(declare-fun i5.i255.i_11_163 () (_ BitVec 64))
(declare-fun cond17.i.i_11_110 () (_ BitVec 64))
(declare-fun cond36.i.i_11_116 () (_ BitVec 64))
(declare-fun i28.i.i_11_111 () (_ BitVec 64))
(declare-fun cond53.i.i_11_120 () (_ BitVec 64))
(declare-fun dst_reg_11_127 () (_ BitVec 64))
(declare-fun i29.i.i_11_114 () (_ BitVec 64))
(declare-fun cond.i250.i_11_106 () (_ BitVec 64))
(declare-fun i27.i.i_11_108 () (_ BitVec 64))
(declare-fun i26.i.i_11_107 () (_ BitVec 64))
(declare-fun cmp12.i.i_11_109 () (_ BitVec 1))
(declare-fun i25.i.i_11_104 () (_ BitVec 64))
(declare-fun i.i245.i_11_98 () (_ BitVec 64))
(declare-fun cmp4.i.i_11_105 () (_ BitVec 1))
(declare-fun i24.i.i_11_101 () (_ BitVec 64))
(declare-fun cmp31.i.i_11_115 () (_ BitVec 1))
(declare-fun conv.i.i.i.i_11_210 () (_ BitVec 32))
(declare-fun phi.bo_11_212 () (_ BitVec 32))
(declare-fun i.i.i.i.i.i.neg_11_209 () (_ BitVec 32))
(declare-fun num.4.i.i.i.i.i_11_206 () (_ BitVec 32))
(declare-fun word.addr.4.lobit.i.i.i.i.i.neg_11_208 () (_ BitVec 64))
(declare-fun word.addr.4.i.i.i.i.i_11_205 () (_ BitVec 64))
(declare-fun num.3.i.i.i.i.i_11_198 () (_ BitVec 32))
(declare-fun sub22.i.i.i.i.i_11_202 () (_ BitVec 32))
(declare-fun tobool20.not.i.i.i.i.i_11_200 () (_ BitVec 1))
(declare-fun word.addr.3.i.i.i.i.i_11_197 () (_ BitVec 64))
(declare-fun shl23.i.i.i.i.i_11_204 () (_ BitVec 64))
(declare-fun num.2.i.i.i.i.i_11_190 () (_ BitVec 32))
(declare-fun sub16.i.i.i.i.i_11_194 () (_ BitVec 32))
(declare-fun tobool14.not.i.i.i.i.i_11_192 () (_ BitVec 1))
(declare-fun word.addr.2.i.i.i.i.i_11_189 () (_ BitVec 64))
(declare-fun shl17.i.i.i.i.i_11_196 () (_ BitVec 64))
(declare-fun num.1.i.i.i.i.i_11_182 () (_ BitVec 32))
(declare-fun sub10.i.i.i.i.i_11_186 () (_ BitVec 32))
(declare-fun tobool8.not.i.i.i.i.i_11_184 () (_ BitVec 1))
(declare-fun word.addr.1.i.i.i.i.i_11_181 () (_ BitVec 64))
(declare-fun shl11.i.i.i.i.i_11_188 () (_ BitVec 64))
(declare-fun spec.select17.i.i.i.i.i_11_174 () (_ BitVec 32))
(declare-fun sub4.i.i.i.i.i_11_178 () (_ BitVec 32))
(declare-fun tobool2.not.i.i.i.i.i_11_176 () (_ BitVec 1))
(declare-fun spec.select.i.i.i.i.i_11_171 () (_ BitVec 64))
(declare-fun shl5.i.i.i.i.i_11_180 () (_ BitVec 64))
(declare-fun tobool.not.i.i.i.i.i_11_168 () (_ BitVec 1))
(declare-fun shl.i.i.i.i.i_11_170 () (_ BitVec 64))
(declare-fun cmp48.i.i_11_119 () (_ BitVec 1))
(declare-fun and124.i_11_55 () (_ BitVec 64))
(declare-fun cond46.i134.i_11_76 () (_ BitVec 64))
(declare-fun dst_reg_11_9 () (_ BitVec 32))
(declare-fun dst_reg_11_85 () (_ BitVec 64))
(declare-fun cond.i_11_64 () (_ BitVec 64))
(declare-fun and.i106.i_11_60 () (_ BitVec 64))
(declare-fun cond19.i125.i_11_73 () (_ BitVec 64))
(declare-fun and9.i107.i_11_62 () (_ BitVec 64))
(declare-fun dst_reg_11_2 () (_ BitVec 32))
(declare-fun dst_reg_11_1 () (_ BitVec 32))
(declare-fun src_reg_11_19 () (_ BitVec 32))
(declare-fun src_reg_11_18 () (_ BitVec 64))
(declare-fun src_reg_11_17 () (_ BitVec 64))
(declare-fun src_reg_11_16 () (_ BitVec 64))
(declare-fun src_reg_11_15 () (_ BitVec 64))
(declare-fun src_reg_11_14 () (_ BitVec 64))
(declare-fun src_reg_11_13 () (_ BitVec 64))
(declare-fun src_reg_11_12 () (_ BitVec 32))
(declare-fun src_reg_11_11 () (_ BitVec 32))
(declare-fun cond46.i.i.i_11_44 () (_ BitVec 64))
(declare-fun or37.i132.i_11_74 () (_ BitVec 64))
(declare-fun cmp41.i133.i_11_75 () (_ BitVec 1))
(declare-fun and8.i.i_11_61 () (_ BitVec 64))
(declare-fun or10.i123.i_11_71 () (_ BitVec 64))
(declare-fun cond.sink.i_11_70 () (_ BitVec 64))
(declare-fun cmp14.i124.i_11_72 () (_ BitVec 1))
(declare-fun .not1.i_11_66 () (_ BitVec 1))
(declare-fun .sink.i_11_68 () (_ BitVec 64))
(declare-fun cond.i.i18.i_11_59 () (_ BitVec 64))
(declare-fun cond46.i.i33.i_11_51 () (_ BitVec 64))
(declare-fun cmp138.i_11_63 () (_ BitVec 1))
(declare-fun or10.i.i22.i_11_49 () (_ BitVec 64))
(declare-fun or10.i.i.i_11_36 () (_ BitVec 64))
(declare-fun src_reg1.sroa.3.0.copyload_11_25 () (_ BitVec 64))
(declare-fun and.i.i.i_11_29 () (_ BitVec 64))
(declare-fun and.i.i5.i_11_46 () (_ BitVec 64))
(declare-fun src_reg1.sroa.15.0.copyload_11_22 () (_ BitVec 64))
(declare-fun cmp2.i.i17.i_11_58 () (_ BitVec 1))
(declare-fun i_11_52 () (_ BitVec 64))
(declare-fun and6.i.i6.i_11_48 () (_ BitVec 64))
(declare-fun and6.i.i.i_11_31 () (_ BitVec 64))
(declare-fun src_reg1.sroa.24.0.copyload_11_23 () (_ BitVec 64))
(declare-fun cmp41.i.i32.i_11_50 () (_ BitVec 1))
(declare-fun src_reg1.sroa.11.0.copyload_11_24 () (_ BitVec 64))
(declare-fun i19.i.i.i_11_42 () (_ BitVec 64))
(declare-fun cmp41.i.i.i_11_43 () (_ BitVec 1))
(declare-fun dst_reg_11_8 () (_ BitVec 64))
(declare-fun cond31.i.i.i_11_41 () (_ BitVec 64))
(declare-fun i18.i.i.i_11_39 () (_ BitVec 64))
(declare-fun cmp26.i.i.i_11_40 () (_ BitVec 1))
(declare-fun dst_reg_11_7 () (_ BitVec 64))
(declare-fun cond19.i.i.i_11_38 () (_ BitVec 64))
(declare-fun i17.i.i.i_11_35 () (_ BitVec 64))
(declare-fun cmp14.i.i.i_11_37 () (_ BitVec 1))
(declare-fun dst_reg_11_6 () (_ BitVec 64))
(declare-fun cond.i.i.i_11_34 () (_ BitVec 64))
(declare-fun i.i.i.i_11_32 () (_ BitVec 64))
(declare-fun cmp2.i.i.i_11_33 () (_ BitVec 1))
(declare-fun dst_reg_11_5 () (_ BitVec 64))
(declare-fun i6.i.i_11_27 () (_ BitVec 64))
(declare-fun i4.i.i_11_26 () (_ BitVec 64))
(declare-fun dst_reg_11_4 () (_ BitVec 64))
(declare-fun dst_reg_11_3 () (_ BitVec 64))
(declare-fun src_reg_11_10 () (_ BitVec 32))
(declare-fun dst_reg_11_0 () (_ BitVec 32))
(declare-fun src_reg_11_253 () (_ BitVec 32))
(declare-fun src_reg_11_252 () (_ BitVec 64))
(declare-fun src_reg_11_251 () (_ BitVec 64))
(declare-fun src_reg_11_250 () (_ BitVec 64))
(declare-fun src_reg_11_249 () (_ BitVec 64))
(declare-fun src_reg_11_248 () (_ BitVec 64))
(declare-fun src_reg_11_247 () (_ BitVec 64))
(declare-fun src_reg_11_246 () (_ BitVec 32))
(declare-fun src_reg_11_245 () (_ BitVec 32))
(declare-fun src_reg_11_244 () (_ BitVec 32))
(declare-fun dst_reg_11_243 () (_ BitVec 32))
(declare-fun dst_reg_11_242 () (_ BitVec 64))
(declare-fun dst_reg_11_241 () (_ BitVec 64))
(declare-fun dst_reg_11_240 () (_ BitVec 64))
(declare-fun dst_reg_11_239 () (_ BitVec 64))
(declare-fun dst_reg_11_238 () (_ BitVec 64))
(declare-fun and.i1.i260.i_11_229 () (_ BitVec 64))
(declare-fun dst_reg_11_237 () (_ BitVec 64))
(declare-fun and4.i.i.i_11_232 () (_ BitVec 64))
(declare-fun dst_reg_11_236 () (_ BitVec 32))
(declare-fun dst_reg_11_235 () (_ BitVec 32))
(declare-fun dst_reg_11_234 () (_ BitVec 32))
(declare-fun retval.0.i.i.i.i_11_213 () (_ BitVec 32))
(declare-fun neg.i.i.i_11_231 () (_ BitVec 64))
(declare-fun or.i.i259.i_11_228 () (_ BitVec 64))
(declare-fun i11.i.i_11_227 () (_ BitVec 64))
(declare-fun retval.sroa.3.0.i.i.i_11_225 () (_ BitVec 64))
(declare-fun i9.i.i_11_226 () (_ BitVec 64))
(declare-fun retval.sroa.0.0.i.i.i_11_223 () (_ BitVec 64))
(declare-fun sub.i.i.i_11_220 () (_ BitVec 64))
(declare-fun cmp.i.i.i_11_215 () (_ BitVec 1))
(declare-fun and.i.i256.i_11_221 () (_ BitVec 64))
(declare-fun notmask.i.i.i_11_218 () (_ BitVec 64))
(declare-fun sh_prom.i.i.i_11_216 () (_ BitVec 64))
(assert (let ((a!1 (and (= cmp.i246.i_11_100 #b0)
                (or (= i19_11_54 #b0) (= i19_11_54 #b1))))
      (a!8 (=> (= i19_11_54 #b1)
               (and (= and124.i_11_55
                       (bvand and.i.i.i_11_29 src_reg1.sroa.3.0.copyload_11_25)))))
      (a!9 (=> (= i19_11_54 #b0)
               (and (ite (bvsgt src_reg1.sroa.15.0.copyload_11_22
                                and.i.i5.i_11_46)
                         (= cmp2.i.i17.i_11_58 #b1)
                         (= cmp2.i.i17.i_11_58 #b0))
                    (ite (= cmp2.i.i17.i_11_58 #b1)
                         (= cond.i.i18.i_11_59
                            src_reg1.sroa.15.0.copyload_11_22)
                         (= cond.i.i18.i_11_59 and.i.i5.i_11_46))
                    (= and.i106.i_11_60
                       (bvand and.i.i.i_11_29 src_reg1.sroa.3.0.copyload_11_25))
                    (= and8.i.i_11_61
                       (bvand or10.i.i.i_11_36 or10.i.i22.i_11_49))
                    (= and9.i107.i_11_62
                       (bvxor and8.i.i_11_61 and.i106.i_11_60))
                    (ite (bvult cond46.i.i.i_11_44 cond46.i.i33.i_11_51)
                         (= cmp138.i_11_63 #b1)
                         (= cmp138.i_11_63 #b0))
                    (ite (= cmp138.i_11_63 #b1)
                         (= cond.i_11_64 cond46.i.i.i_11_44)
                         (= cond.i_11_64 cond46.i.i33.i_11_51))
                    (ite (bvsgt cond.i.i18.i_11_59 #xffffffffffffffff)
                         (= .not1.i_11_66 #b1)
                         (= .not1.i_11_66 #b0))
                    (ite (= .not1.i_11_66 #b1)
                         (= .sink.i_11_68 and.i106.i_11_60)
                         (= .sink.i_11_68 #x8000000000000000))
                    (ite (= .not1.i_11_66 #b1)
                         (= cond.sink.i_11_70 cond.i_11_64)
                         (= cond.sink.i_11_70 #x7fffffffffffffff))
                    (= or10.i123.i_11_71 (bvor and8.i.i_11_61 and.i106.i_11_60))
                    (ite (bvult cond.sink.i_11_70 or10.i123.i_11_71)
                         (= cmp14.i124.i_11_72 #b1)
                         (= cmp14.i124.i_11_72 #b0))
                    (ite (= cmp14.i124.i_11_72 #b1)
                         (= cond19.i125.i_11_73 cond.sink.i_11_70)
                         (= cond19.i125.i_11_73 or10.i123.i_11_71))
                    (= or37.i132.i_11_74 (bvor and8.i.i_11_61 and.i106.i_11_60))
                    (ite (bvult cond.i_11_64 or37.i132.i_11_74)
                         (= cmp41.i133.i_11_75 #b1)
                         (= cmp41.i133.i_11_75 #b0))
                    (ite (= cmp41.i133.i_11_75 #b1)
                         (= cond46.i134.i_11_76 cond.i_11_64)
                         (= cond46.i134.i_11_76 or37.i132.i_11_74)))))
      (a!10 (and (= dst_reg_11_82 i.i245.i_11_98)
                 (ite (bvsgt i.i245.i_11_98 #xffffffffffffffff)
                      (= cmp.i246.i_11_100 #b1)
                      (= cmp.i246.i_11_100 #b0))
                 (=> (= i19_11_54 #b1)
                     (and (= #x00000001 src_reg_11_87)
                          (= src_reg_11_11 src_reg_11_88)
                          (= src_reg_11_12 src_reg_11_89)
                          (= src_reg_11_13 src_reg_11_90)
                          (= src_reg_11_14 src_reg_11_91)
                          (= src_reg_11_15 src_reg_11_92)
                          (= src_reg_11_16 src_reg_11_93)
                          (= src_reg_11_17 src_reg_11_94)
                          (= src_reg_11_18 src_reg_11_95)
                          (= src_reg_11_19 src_reg_11_96)
                          (= #x00000001 dst_reg_11_77)
                          (= dst_reg_11_1 dst_reg_11_78)
                          (= #x00000000 dst_reg_11_79)
                          (= and124.i_11_55 dst_reg_11_80)
                          (= #x0000000000000000 dst_reg_11_81)
                          (= and124.i_11_55 dst_reg_11_82)
                          (= and124.i_11_55 dst_reg_11_83)
                          (= and124.i_11_55 dst_reg_11_84)
                          (= cond46.i.i.i_11_44 dst_reg_11_85)
                          (= dst_reg_11_9 dst_reg_11_86)))
                 (=> (= i19_11_54 #b0)
                     (and (= #x00000001 src_reg_11_87)
                          (= src_reg_11_11 src_reg_11_88)
                          (= src_reg_11_12 src_reg_11_89)
                          (= src_reg_11_13 src_reg_11_90)
                          (= src_reg_11_14 src_reg_11_91)
                          (= src_reg_11_15 src_reg_11_92)
                          (= src_reg_11_16 src_reg_11_93)
                          (= src_reg_11_17 src_reg_11_94)
                          (= src_reg_11_18 src_reg_11_95)
                          (= src_reg_11_19 src_reg_11_96)
                          (= #x00000001 dst_reg_11_77)
                          (= dst_reg_11_1 dst_reg_11_78)
                          (= dst_reg_11_2 dst_reg_11_79)
                          (= and.i106.i_11_60 dst_reg_11_80)
                          (= and9.i107.i_11_62 dst_reg_11_81)
                          (= and.i106.i_11_60 dst_reg_11_82)
                          (= cond19.i125.i_11_73 dst_reg_11_83)
                          (= and.i106.i_11_60 dst_reg_11_84)
                          (= cond.i_11_64 dst_reg_11_85)
                          (= dst_reg_11_9 dst_reg_11_86)))
                 (=> (= i19_11_54 #b0) (= storemerge_11_97 cond46.i134.i_11_76))
                 (=> (= i19_11_54 #b1) (= storemerge_11_97 and124.i_11_55)))))
(let ((a!2 (and (= cmp40.i.i_11_118 #b1)
                (and (= cmp21.i.i_11_113 #b0)
                     (and (= cmp1.i248.i_11_103 #b0) a!1))))
      (a!3 (or (and (= cmp1.i248.i_11_103 #b1) a!1)
               (and (= cmp.i246.i_11_100 #b1)
                    (or (= i19_11_54 #b0) (= i19_11_54 #b1)))))
      (a!5 (and (= cmp40.i.i_11_118 #b0)
                (and (= cmp21.i.i_11_113 #b0)
                     (and (= cmp1.i248.i_11_103 #b0) a!1))))
      (a!11 (=> (and (= cmp21.i.i_11_113 #b0)
                     (and (= cmp1.i248.i_11_103 #b0) a!1))
                (and (ite (bvslt i29.i.i_11_114 #x0000000000000000)
                          (= cmp40.i.i_11_118 #b1)
                          (= cmp40.i.i_11_118 #b0)))))
      (a!12 (=> a!1
                (and (= dst_reg_11_83 i24.i.i_11_101)
                     (ite (bvslt i24.i.i_11_101 #x0000000000000000)
                          (= cmp1.i248.i_11_103 #b1)
                          (= cmp1.i248.i_11_103 #b0)))))
      (a!15 (=> (and (= cmp21.i.i_11_113 #b1)
                     (and (= cmp1.i248.i_11_103 #b0) a!1))
                (and (ite (bvult i24.i.i_11_101 i28.i.i_11_111)
                          (= cmp31.i.i_11_115 #b1)
                          (= cmp31.i.i_11_115 #b0))
                     (ite (= cmp31.i.i_11_115 #b1)
                          (= cond36.i.i_11_116 i24.i.i_11_101)
                          (= cond36.i.i_11_116 i28.i.i_11_111)))))
      (a!17 (=> (and (= cmp1.i248.i_11_103 #b0) a!1)
                (and (= storemerge_11_97 i28.i.i_11_111)
                     (ite (bvsgt i28.i.i_11_111 #xffffffffffffffff)
                          (= cmp21.i.i_11_113 #b1)
                          (= cmp21.i.i_11_113 #b0))
                     (= dst_reg_11_84 i29.i.i_11_114))))
      (a!18 (=> (and (= cmp21.i.i_11_113 #b1)
                     (and (= cmp1.i248.i_11_103 #b0) a!1))
                (and (= src_reg_11_87 src_reg_11_131)
                     (= src_reg_11_88 src_reg_11_132)
                     (= src_reg_11_89 src_reg_11_133)
                     (= src_reg_11_90 src_reg_11_134)
                     (= src_reg_11_91 src_reg_11_135)
                     (= src_reg_11_92 src_reg_11_136)
                     (= src_reg_11_93 src_reg_11_137)
                     (= src_reg_11_94 src_reg_11_138)
                     (= src_reg_11_95 src_reg_11_139)
                     (= src_reg_11_96 src_reg_11_140)
                     (= dst_reg_11_77 dst_reg_11_121)
                     (= dst_reg_11_78 dst_reg_11_122)
                     (= dst_reg_11_79 dst_reg_11_123)
                     (= dst_reg_11_80 dst_reg_11_124)
                     (= dst_reg_11_81 dst_reg_11_125)
                     (= i29.i.i_11_114 dst_reg_11_126)
                     (= dst_reg_11_83 dst_reg_11_127)
                     (= dst_reg_11_84 dst_reg_11_128)
                     (= cond36.i.i_11_116 dst_reg_11_129)
                     (= dst_reg_11_86 dst_reg_11_130))))
      (a!19 (=> (and (= cmp21.i.i_11_113 #b1)
                     (and (= cmp1.i248.i_11_103 #b0) a!1))
                (= i28.i.i.sink_11_141 cond36.i.i_11_116))))
(let ((a!4 (or a!2
               (and (= cmp21.i.i_11_113 #b1)
                    (and (= cmp1.i248.i_11_103 #b0) a!1))
               a!3))
      (a!13 (=> a!2
                (and (ite (bvugt i.i245.i_11_98 i29.i.i_11_114)
                          (= cmp48.i.i_11_119 #b1)
                          (= cmp48.i.i_11_119 #b0))
                     (ite (= cmp48.i.i_11_119 #b1)
                          (= cond53.i.i_11_120 i.i245.i_11_98)
                          (= cond53.i.i_11_120 i29.i.i_11_114)))))
      (a!16 (=> a!3
                (and (= dst_reg_11_84 i25.i.i_11_104)
                     (ite (bvugt i.i245.i_11_98 i25.i.i_11_104)
                          (= cmp4.i.i_11_105 #b1)
                          (= cmp4.i.i_11_105 #b0))
                     (ite (= cmp4.i.i_11_105 #b1)
                          (= cond.i250.i_11_106 i.i245.i_11_98)
                          (= cond.i250.i_11_106 i25.i.i_11_104))
                     (= dst_reg_11_83 i26.i.i_11_107)
                     (= storemerge_11_97 i27.i.i_11_108)
                     (ite (bvult i26.i.i_11_107 i27.i.i_11_108)
                          (= cmp12.i.i_11_109 #b1)
                          (= cmp12.i.i_11_109 #b0))
                     (ite (= cmp12.i.i_11_109 #b1)
                          (= cond17.i.i_11_110 i26.i.i_11_107)
                          (= cond17.i.i_11_110 i27.i.i_11_108)))))
      (a!20 (and (=> a!3
                     (and (= src_reg_11_87 src_reg_11_131)
                          (= src_reg_11_88 src_reg_11_132)
                          (= src_reg_11_89 src_reg_11_133)
                          (= src_reg_11_90 src_reg_11_134)
                          (= src_reg_11_91 src_reg_11_135)
                          (= src_reg_11_92 src_reg_11_136)
                          (= src_reg_11_93 src_reg_11_137)
                          (= src_reg_11_94 src_reg_11_138)
                          (= src_reg_11_95 src_reg_11_139)
                          (= src_reg_11_96 src_reg_11_140)
                          (= dst_reg_11_77 dst_reg_11_121)
                          (= dst_reg_11_78 dst_reg_11_122)
                          (= dst_reg_11_79 dst_reg_11_123)
                          (= dst_reg_11_80 dst_reg_11_124)
                          (= dst_reg_11_81 dst_reg_11_125)
                          (= cond.i250.i_11_106 dst_reg_11_126)
                          (= dst_reg_11_83 dst_reg_11_127)
                          (= cond.i250.i_11_106 dst_reg_11_128)
                          (= cond17.i.i_11_110 dst_reg_11_129)
                          (= dst_reg_11_86 dst_reg_11_130)))
                 a!18
                 (=> a!2
                     (and (= src_reg_11_87 src_reg_11_131)
                          (= src_reg_11_88 src_reg_11_132)
                          (= src_reg_11_89 src_reg_11_133)
                          (= src_reg_11_90 src_reg_11_134)
                          (= src_reg_11_91 src_reg_11_135)
                          (= src_reg_11_92 src_reg_11_136)
                          (= src_reg_11_93 src_reg_11_137)
                          (= src_reg_11_94 src_reg_11_138)
                          (= src_reg_11_95 src_reg_11_139)
                          (= src_reg_11_96 src_reg_11_140)
                          (= dst_reg_11_77 dst_reg_11_121)
                          (= dst_reg_11_78 dst_reg_11_122)
                          (= dst_reg_11_79 dst_reg_11_123)
                          (= dst_reg_11_80 dst_reg_11_124)
                          (= dst_reg_11_81 dst_reg_11_125)
                          (= cond53.i.i_11_120 dst_reg_11_126)
                          (= dst_reg_11_83 dst_reg_11_127)
                          (= cond53.i.i_11_120 dst_reg_11_128)
                          (= storemerge_11_97 dst_reg_11_129)
                          (= dst_reg_11_86 dst_reg_11_130)))
                 (=> a!2 (= i28.i.i.sink_11_141 i28.i.i_11_111))
                 a!19
                 (=> a!3 (= i28.i.i.sink_11_141 cond17.i.i_11_110)))))
(let ((a!6 (and (ite (bvugt retval.0.i.i.i.i_11_213 #x0000003f)
                     (= cmp.i.i.i_11_215 #b1)
                     (= cmp.i.i.i_11_215 #b0))
                (= sh_prom.i.i.i_11_216
                   ((_ zero_extend 32) retval.0.i.i.i.i_11_213))
                (= notmask.i.i.i_11_218
                   (bvshl #xffffffffffffffff sh_prom.i.i.i_11_216))
                (= sub.i.i.i_11_220
                   (bvxor notmask.i.i.i_11_218 #xffffffffffffffff))
                (= and.i.i256.i_11_221
                   (bvand notmask.i.i.i_11_218 i.i253.i_11_162))
                (ite (= cmp.i.i.i_11_215 #b1)
                     (= retval.sroa.0.0.i.i.i_11_223 #x0000000000000000)
                     (= retval.sroa.0.0.i.i.i_11_223 and.i.i256.i_11_221))
                (ite (= cmp.i.i.i_11_215 #b1)
                     (= retval.sroa.3.0.i.i.i_11_225 #xffffffffffffffff)
                     (= retval.sroa.3.0.i.i.i_11_225 sub.i.i.i_11_220))
                (= dst_reg_11_80 i9.i.i_11_226)
                (= dst_reg_11_81 i11.i.i_11_227)
                (= or.i.i259.i_11_228
                   (bvor retval.sroa.0.0.i.i.i_11_223 i9.i.i_11_226))
                (= and.i1.i260.i_11_229
                   (bvand retval.sroa.3.0.i.i.i_11_225 i11.i.i_11_227))
                (= neg.i.i.i_11_231
                   (bvxor and.i1.i260.i_11_229 #xffffffffffffffff))
                (= and4.i.i.i_11_232
                   (bvand or.i.i259.i_11_228 neg.i.i.i_11_231))
                (=> (and (= cmp.i.i.i.i_11_166 #b0) (or a!4 a!5))
                    (= retval.0.i.i.i.i_11_213 phi.bo_11_212))
                (=> (and (= cmp.i.i.i.i_11_166 #b1) (or a!4 a!5))
                    (= retval.0.i.i.i.i_11_213 #x00000000))
                (= dst_reg_11_142 dst_reg_11_234)
                (= dst_reg_11_143 dst_reg_11_235)
                (= dst_reg_11_144 dst_reg_11_236)
                (= and4.i.i.i_11_232 dst_reg_11_237)
                (= and.i1.i260.i_11_229 dst_reg_11_238)
                (= dst_reg_11_147 dst_reg_11_239)
                (= dst_reg_11_148 dst_reg_11_240)
                (= dst_reg_11_149 dst_reg_11_241)
                (= dst_reg_11_150 dst_reg_11_242)
                (= dst_reg_11_151 dst_reg_11_243)
                (= src_reg_11_152 src_reg_11_244)
                (= src_reg_11_153 src_reg_11_245)
                (= src_reg_11_154 src_reg_11_246)
                (= src_reg_11_155 src_reg_11_247)
                (= src_reg_11_156 src_reg_11_248)
                (= src_reg_11_157 src_reg_11_249)
                (= src_reg_11_158 src_reg_11_250)
                (= src_reg_11_159 src_reg_11_251)
                (= src_reg_11_160 src_reg_11_252)
                (= src_reg_11_161 src_reg_11_253)))
      (a!14 (=> (and (= cmp.i.i.i.i_11_166 #b0) (or a!4 a!5))
                (and (ite (bvult xor.i.i.i_11_164 #x0000000100000000)
                          (= tobool.not.i.i.i.i.i_11_168 #b1)
                          (= tobool.not.i.i.i.i.i_11_168 #b0))
                     (= shl.i.i.i.i.i_11_170
                        (bvshl xor.i.i.i_11_164 #x0000000000000020))
                     (ite (= tobool.not.i.i.i.i.i_11_168 #b1)
                          (= spec.select.i.i.i.i.i_11_171 shl.i.i.i.i.i_11_170)
                          (= spec.select.i.i.i.i.i_11_171 xor.i.i.i_11_164))
                     (ite (= tobool.not.i.i.i.i.i_11_168 #b1)
                          (= spec.select17.i.i.i.i.i_11_174 #x0000001f)
                          (= spec.select17.i.i.i.i.i_11_174 #x0000003f))
                     (ite (bvult spec.select.i.i.i.i.i_11_171
                                 #x0001000000000000)
                          (= tobool2.not.i.i.i.i.i_11_176 #b1)
                          (= tobool2.not.i.i.i.i.i_11_176 #b0))
                     (= sub4.i.i.i.i.i_11_178
                        (bvadd spec.select17.i.i.i.i.i_11_174 #xfffffff0))
                     (= shl5.i.i.i.i.i_11_180
                        (bvshl spec.select.i.i.i.i.i_11_171 #x0000000000000010))
                     (ite (= tobool2.not.i.i.i.i.i_11_176 #b1)
                          (= word.addr.1.i.i.i.i.i_11_181 shl5.i.i.i.i.i_11_180)
                          (= word.addr.1.i.i.i.i.i_11_181
                             spec.select.i.i.i.i.i_11_171))
                     (ite (= tobool2.not.i.i.i.i.i_11_176 #b1)
                          (= num.1.i.i.i.i.i_11_182 sub4.i.i.i.i.i_11_178)
                          (= num.1.i.i.i.i.i_11_182
                             spec.select17.i.i.i.i.i_11_174))
                     (ite (bvult word.addr.1.i.i.i.i.i_11_181
                                 #x0100000000000000)
                          (= tobool8.not.i.i.i.i.i_11_184 #b1)
                          (= tobool8.not.i.i.i.i.i_11_184 #b0))
                     (= sub10.i.i.i.i.i_11_186
                        (bvadd num.1.i.i.i.i.i_11_182 #xfffffff8))
                     (= shl11.i.i.i.i.i_11_188
                        (bvshl word.addr.1.i.i.i.i.i_11_181 #x0000000000000008))
                     (ite (= tobool8.not.i.i.i.i.i_11_184 #b1)
                          (= word.addr.2.i.i.i.i.i_11_189
                             shl11.i.i.i.i.i_11_188)
                          (= word.addr.2.i.i.i.i.i_11_189
                             word.addr.1.i.i.i.i.i_11_181))
                     (ite (= tobool8.not.i.i.i.i.i_11_184 #b1)
                          (= num.2.i.i.i.i.i_11_190 sub10.i.i.i.i.i_11_186)
                          (= num.2.i.i.i.i.i_11_190 num.1.i.i.i.i.i_11_182))
                     (ite (bvult word.addr.2.i.i.i.i.i_11_189
                                 #x1000000000000000)
                          (= tobool14.not.i.i.i.i.i_11_192 #b1)
                          (= tobool14.not.i.i.i.i.i_11_192 #b0))
                     (= sub16.i.i.i.i.i_11_194
                        (bvadd num.2.i.i.i.i.i_11_190 #xfffffffc))
                     (= shl17.i.i.i.i.i_11_196
                        (bvshl word.addr.2.i.i.i.i.i_11_189 #x0000000000000004))
                     (ite (= tobool14.not.i.i.i.i.i_11_192 #b1)
                          (= word.addr.3.i.i.i.i.i_11_197
                             shl17.i.i.i.i.i_11_196)
                          (= word.addr.3.i.i.i.i.i_11_197
                             word.addr.2.i.i.i.i.i_11_189))
                     (ite (= tobool14.not.i.i.i.i.i_11_192 #b1)
                          (= num.3.i.i.i.i.i_11_198 sub16.i.i.i.i.i_11_194)
                          (= num.3.i.i.i.i.i_11_198 num.2.i.i.i.i.i_11_190))
                     (ite (bvult word.addr.3.i.i.i.i.i_11_197
                                 #x4000000000000000)
                          (= tobool20.not.i.i.i.i.i_11_200 #b1)
                          (= tobool20.not.i.i.i.i.i_11_200 #b0))
                     (= sub22.i.i.i.i.i_11_202
                        (bvadd num.3.i.i.i.i.i_11_198 #x000000fe))
                     (= shl23.i.i.i.i.i_11_204
                        (bvshl word.addr.3.i.i.i.i.i_11_197 #x0000000000000002))
                     (ite (= tobool20.not.i.i.i.i.i_11_200 #b1)
                          (= word.addr.4.i.i.i.i.i_11_205
                             shl23.i.i.i.i.i_11_204)
                          (= word.addr.4.i.i.i.i.i_11_205
                             word.addr.3.i.i.i.i.i_11_197))
                     (ite (= tobool20.not.i.i.i.i.i_11_200 #b1)
                          (= num.4.i.i.i.i.i_11_206 sub22.i.i.i.i.i_11_202)
                          (= num.4.i.i.i.i.i_11_206 num.3.i.i.i.i.i_11_198))
                     (= word.addr.4.lobit.i.i.i.i.i.neg_11_208
                        (bvlshr word.addr.4.i.i.i.i.i_11_205 #x000000000000003f))
                     (= i.i.i.i.i.i.neg_11_209
                        ((_ extract 31 0)
                          word.addr.4.lobit.i.i.i.i.i.neg_11_208))
                     (= conv.i.i.i.i_11_210
                        (bvadd num.4.i.i.i.i.i_11_206 i.i.i.i.i.i.neg_11_209))
                     (= phi.bo_11_212 (bvand conv.i.i.i.i_11_210 #x000000ff)))))
      (a!21 (and (= dst_reg_11_149 i.i253.i_11_162)
                 (= dst_reg_11_150 i5.i255.i_11_163)
                 (= xor.i.i.i_11_164 (bvxor i5.i255.i_11_163 i.i253.i_11_162))
                 (ite (= xor.i.i.i_11_164 #x0000000000000000)
                      (= cmp.i.i.i.i_11_166 #b1)
                      (= cmp.i.i.i.i_11_166 #b0))
                 (=> a!4
                     (and (= src_reg_11_131 src_reg_11_152)
                          (= src_reg_11_132 src_reg_11_153)
                          (= src_reg_11_133 src_reg_11_154)
                          (= src_reg_11_134 src_reg_11_155)
                          (= src_reg_11_135 src_reg_11_156)
                          (= src_reg_11_136 src_reg_11_157)
                          (= src_reg_11_137 src_reg_11_158)
                          (= src_reg_11_138 src_reg_11_159)
                          (= src_reg_11_139 src_reg_11_160)
                          (= src_reg_11_140 src_reg_11_161)
                          (= dst_reg_11_121 dst_reg_11_142)
                          (= dst_reg_11_122 dst_reg_11_143)
                          (= dst_reg_11_123 dst_reg_11_144)
                          (= dst_reg_11_124 dst_reg_11_145)
                          (= dst_reg_11_125 dst_reg_11_146)
                          (= dst_reg_11_126 dst_reg_11_147)
                          (= i28.i.i.sink_11_141 dst_reg_11_148)
                          (= dst_reg_11_128 dst_reg_11_149)
                          (= dst_reg_11_129 dst_reg_11_150)
                          (= dst_reg_11_130 dst_reg_11_151)))
                 (=> a!5
                     (and (= src_reg_11_87 src_reg_11_152)
                          (= src_reg_11_88 src_reg_11_153)
                          (= src_reg_11_89 src_reg_11_154)
                          (= src_reg_11_90 src_reg_11_155)
                          (= src_reg_11_91 src_reg_11_156)
                          (= src_reg_11_92 src_reg_11_157)
                          (= src_reg_11_93 src_reg_11_158)
                          (= src_reg_11_94 src_reg_11_159)
                          (= src_reg_11_95 src_reg_11_160)
                          (= src_reg_11_96 src_reg_11_161)
                          (= dst_reg_11_77 dst_reg_11_142)
                          (= dst_reg_11_78 dst_reg_11_143)
                          (= dst_reg_11_79 dst_reg_11_144)
                          (= dst_reg_11_80 dst_reg_11_145)
                          (= dst_reg_11_81 dst_reg_11_146)
                          (= dst_reg_11_82 dst_reg_11_147)
                          (= dst_reg_11_83 dst_reg_11_148)
                          (= dst_reg_11_84 dst_reg_11_149)
                          (= storemerge_11_97 dst_reg_11_150)
                          (= dst_reg_11_86 dst_reg_11_151))))))
(let ((a!7 (=> (or (and (= cmp.i.i.i.i_11_166 #b0) (or a!4 a!5))
                   (and (= cmp.i.i.i.i_11_166 #b1) (or a!4 a!5)))
               a!6)))
  (and a!7
       (= dst_reg_11_0 dst_reg_11_0)
       (= dst_reg_11_1 dst_reg_11_1)
       (= dst_reg_11_2 dst_reg_11_2)
       (= dst_reg_11_3 dst_reg_11_3)
       (= dst_reg_11_4 dst_reg_11_4)
       (= dst_reg_11_5 dst_reg_11_5)
       (= dst_reg_11_6 dst_reg_11_6)
       (= dst_reg_11_7 dst_reg_11_7)
       (= dst_reg_11_8 dst_reg_11_8)
       (= dst_reg_11_9 dst_reg_11_9)
       (= src_reg_11_10 src_reg_11_10)
       (= src_reg_11_11 src_reg_11_11)
       (= src_reg_11_12 src_reg_11_12)
       (= src_reg_11_13 src_reg_11_13)
       (= src_reg_11_14 src_reg_11_14)
       (= src_reg_11_15 src_reg_11_15)
       (= src_reg_11_16 src_reg_11_16)
       (= src_reg_11_17 src_reg_11_17)
       (= src_reg_11_18 src_reg_11_18)
       (= src_reg_11_19 src_reg_11_19)
       (= src_reg_11_15 src_reg1.sroa.15.0.copyload_11_22)
       (= src_reg_11_18 src_reg1.sroa.24.0.copyload_11_23)
       (= src_reg_11_14 src_reg1.sroa.11.0.copyload_11_24)
       (= src_reg_11_13 src_reg1.sroa.3.0.copyload_11_25)
       (= dst_reg_11_3 i4.i.i_11_26)
       (= dst_reg_11_4 i6.i.i_11_27)
       (= and.i.i.i_11_29 (bvand i4.i.i_11_26 #x00000000ffffffff))
       (= and6.i.i.i_11_31 (bvand i6.i.i_11_27 #x00000000ffffffff))
       (= dst_reg_11_5 i.i.i.i_11_32)
       (ite (bvsgt i.i.i.i_11_32 and.i.i.i_11_29)
            (= cmp2.i.i.i_11_33 #b1)
            (= cmp2.i.i.i_11_33 #b0))
       (ite (= cmp2.i.i.i_11_33 #b1)
            (= cond.i.i.i_11_34 i.i.i.i_11_32)
            (= cond.i.i.i_11_34 and.i.i.i_11_29))
       (= dst_reg_11_6 i17.i.i.i_11_35)
       (= or10.i.i.i_11_36 (bvor and6.i.i.i_11_31 and.i.i.i_11_29))
       (ite (bvslt i17.i.i.i_11_35 or10.i.i.i_11_36)
            (= cmp14.i.i.i_11_37 #b1)
            (= cmp14.i.i.i_11_37 #b0))
       (ite (= cmp14.i.i.i_11_37 #b1)
            (= cond19.i.i.i_11_38 i17.i.i.i_11_35)
            (= cond19.i.i.i_11_38 or10.i.i.i_11_36))
       (= dst_reg_11_7 i18.i.i.i_11_39)
       (ite (bvugt i18.i.i.i_11_39 and.i.i.i_11_29)
            (= cmp26.i.i.i_11_40 #b1)
            (= cmp26.i.i.i_11_40 #b0))
       (ite (= cmp26.i.i.i_11_40 #b1)
            (= cond31.i.i.i_11_41 i18.i.i.i_11_39)
            (= cond31.i.i.i_11_41 and.i.i.i_11_29))
       (= dst_reg_11_8 i19.i.i.i_11_42)
       (ite (bvult i19.i.i.i_11_42 or10.i.i.i_11_36)
            (= cmp41.i.i.i_11_43 #b1)
            (= cmp41.i.i.i_11_43 #b0))
       (ite (= cmp41.i.i.i_11_43 #b1)
            (= cond46.i.i.i_11_44 i19.i.i.i_11_42)
            (= cond46.i.i.i_11_44 or10.i.i.i_11_36))
       (= and.i.i5.i_11_46
          (bvand src_reg1.sroa.3.0.copyload_11_25 #x00000000ffffffff))
       (= and6.i.i6.i_11_48
          (bvand src_reg1.sroa.11.0.copyload_11_24 #x00000000ffffffff))
       (= or10.i.i22.i_11_49 (bvor and.i.i5.i_11_46 and6.i.i6.i_11_48))
       (ite (bvult src_reg1.sroa.24.0.copyload_11_23 or10.i.i22.i_11_49)
            (= cmp41.i.i32.i_11_50 #b1)
            (= cmp41.i.i32.i_11_50 #b0))
       (ite (= cmp41.i.i32.i_11_50 #b1)
            (= cond46.i.i33.i_11_51 src_reg1.sroa.24.0.copyload_11_23)
            (= cond46.i.i33.i_11_51 or10.i.i22.i_11_49))
       (= i_11_52 (bvor and6.i.i.i_11_31 and6.i.i6.i_11_48))
       (ite (= i_11_52 #x0000000000000000) (= i19_11_54 #b1) (= i19_11_54 #b0))
       a!8
       a!9
       (=> (or (= i19_11_54 #b0) (= i19_11_54 #b1)) a!10)
       a!11
       a!12
       a!13
       a!14
       a!15
       a!16
       a!17
       (=> a!4 a!20)
       (=> (or a!4 a!5) a!21))))))))

;{"dst_reg":["dst_reg_11_0",[""],"dst_reg_11_1","dst_reg_11_2",["dst_reg_11_3","dst_reg_11_4"],"dst_reg_11_5","dst_reg_11_6","dst_reg_11_7","dst_reg_11_8","dst_reg_11_9"],"src_reg":["src_reg_11_10",[""],"src_reg_11_11","src_reg_11_12",["src_reg_11_13","src_reg_11_14"],"src_reg_11_15","src_reg_11_16","src_reg_11_17","src_reg_11_18","src_reg_11_19"]}
;{"dst_reg":["dst_reg_11_234",[""],"dst_reg_11_235","dst_reg_11_236",["dst_reg_11_237","dst_reg_11_238"],"dst_reg_11_239","dst_reg_11_240","dst_reg_11_241","dst_reg_11_242","dst_reg_11_243"],"src_reg":["src_reg_11_244",[""],"src_reg_11_245","src_reg_11_246",["src_reg_11_247","src_reg_11_248"],"src_reg_11_249","src_reg_11_250","src_reg_11_251","src_reg_11_252","src_reg_11_253"]}
